(declare-fun v3 () (_ BitVec 9))
(declare-fun v13 () (_ BitVec 1))
(declare-fun v20 () (_ BitVec 10))
(declare-fun v23 () (_ BitVec 9))
(assert
(let (($e1 (_ bv0 1)))
(let (($e23 (_ bv0 8)))
(let (($e507 (concat $e23 v13)))
(let (($e508 (bvand v23 $e507)))
(let (($e509 (concat $e1 $e508)))
(let (($e510 (bvand $e509 v20)))
(let (($e942              v3 ))
(let (($e943        $e942                             ))
(let (($e944                  $e943 ))
(let (($e947                                 $e944 ))
(let (($e1168                        $e1 ))
(let (($e1169 (concat $e1168 $e508)))
(let (($e1170 (   extract      $e947)))
(let (($e1171             $e1170          ))
(let (($e1172            $e1171 ))
              (ite        $e1172  $e1169 $e510)
                                                                                                                                                                                                                                                                                                                                                                                                                                                                                                                                                                                                                                                                                                                                                                                                                                                                                                                                                                                                                                                                                                                                                                                                                                                                                                                                                                                                                                                                                                                                                                                                                                                                                                                                                                                                                                                                                                                                                                                                                                                                                                                                                                                                                                                                                                                                                                                                                                                                                                                                                                                                                                                                                                                                                                                                                                                                                                                                                                                                                                                                                                                                                                                    )))))                                                                                                                                                                                                                            )  )))                                                                                                                                                                                                                                                                                                                                                                                                                                               ))))                                                                                                                                                                                                                                                                                                                                                                                                                                                                   )                     ))
